p cnf 362 1854
1 0
-2 0
-3 0
-4 0
-5 0
36 6 0
-36 -6 0
6 7 8 9 10 0
-6 -246 0
-6 -247 0
-6 -248 0
-7 246 0
-7 -247 0
-7 -248 0
-8 -246 0
-8 247 0
-8 -248 0
-9 246 0
-9 247 0
-9 -248 0
-10 -246 0
-10 -247 0
-10 248 0
-6 1 11 0
-6 1 41 0
-6 11 41 0
-7 2 12 0
-7 2 42 0
-7 12 42 0
-8 3 13 0
-8 3 43 0
-8 13 43 0
-9 4 14 0
-9 4 44 0
-9 14 44 0
-10 5 15 0
-10 5 45 0
-10 15 45 0
-6 -1 -11 -41 0
-7 -2 -12 -42 0
-8 -3 -13 -43 0
-9 -4 -14 -44 0
-10 -5 -15 -45 0
12 0
-11 0
-13 0
-14 0
-15 0
7 17 47 0
-7 -17 0
-7 -47 0
-17 -47 0
16 0
-17 0
-18 0
-19 0
-20 0
11 21 51 0
-11 -21 0
-11 -51 0
-21 -51 0
21 22 23 24 25 0
-21 -249 0
-21 -250 0
-21 -251 0
-22 249 0
-22 -250 0
-22 -251 0
-23 -249 0
-23 250 0
-23 -251 0
-24 249 0
-24 250 0
-24 -251 0
-25 -249 0
-25 -250 0
-25 251 0
-21 16 26 0
-21 16 56 0
-21 26 56 0
-22 17 27 0
-22 17 57 0
-22 27 57 0
-23 18 28 0
-23 18 58 0
-23 28 58 0
-24 19 29 0
-24 19 59 0
-24 29 59 0
-25 20 30 0
-25 20 60 0
-25 30 60 0
-21 -16 -26 -56 0
-22 -17 -27 -57 0
-23 -18 -28 -58 0
-24 -19 -29 -59 0
-25 -20 -30 -60 0
26 27 28 29 30 0
-26 -252 0
-26 -253 0
-26 -254 0
-27 252 0
-27 -253 0
-27 -254 0
-28 -252 0
-28 253 0
-28 -254 0
-29 252 0
-29 253 0
-29 -254 0
-30 -252 0
-30 -253 0
-30 254 0
-26 21 31 0
-26 21 61 0
-26 31 61 0
-27 22 32 0
-27 22 62 0
-27 32 62 0
-28 23 33 0
-28 23 63 0
-28 33 63 0
-29 24 34 0
-29 24 64 0
-29 34 64 0
-30 25 35 0
-30 25 65 0
-30 35 65 0
-26 -21 -31 -61 0
-27 -22 -32 -62 0
-28 -23 -33 -63 0
-29 -24 -34 -64 0
-30 -25 -35 -65 0
31 32 33 34 35 0
-31 -255 0
-31 -256 0
-31 -257 0
-32 255 0
-32 -256 0
-32 -257 0
-33 -255 0
-33 256 0
-33 -257 0
-34 255 0
-34 256 0
-34 -257 0
-35 -255 0
-35 -256 0
-35 257 0
-31 66 0
-31 26 0
-32 67 0
-32 27 0
-33 68 0
-33 28 0
-34 69 0
-34 29 0
-35 70 0
-35 30 0
36 37 38 39 40 0
-36 -258 0
-36 -259 0
-36 -260 0
-37 258 0
-37 -259 0
-37 -260 0
-38 -258 0
-38 259 0
-38 -260 0
-39 258 0
-39 259 0
-39 -260 0
-40 -258 0
-40 -259 0
-40 260 0
-36 71 41 0
-36 71 1 0
-36 41 1 0
-37 72 42 0
-37 72 2 0
-37 42 2 0
-38 73 43 0
-38 73 3 0
-38 43 3 0
-39 74 44 0
-39 74 4 0
-39 44 4 0
-40 75 45 0
-40 75 5 0
-40 45 5 0
-36 -71 -41 -1 0
-37 -72 -42 -2 0
-38 -73 -43 -3 0
-39 -74 -44 -4 0
-40 -75 -45 -5 0
41 42 43 44 45 0
-41 -261 0
-41 -262 0
-41 -263 0
-42 261 0
-42 -262 0
-42 -263 0
-43 -261 0
-43 262 0
-43 -263 0
-44 261 0
-44 262 0
-44 -263 0
-45 -261 0
-45 -262 0
-45 263 0
-41 76 46 6 0
-41 76 46 36 0
-41 76 6 36 0
-41 46 6 36 0
-42 77 47 7 0
-42 77 47 37 0
-42 77 7 37 0
-42 47 7 37 0
-43 78 48 8 0
-43 78 48 38 0
-43 78 8 38 0
-43 48 8 38 0
-44 79 49 9 0
-44 79 49 39 0
-44 79 9 39 0
-44 49 9 39 0
-45 80 50 10 0
-45 80 50 40 0
-45 80 10 40 0
-45 50 10 40 0
-41 -76 -46 -6 0
-41 -76 -46 -36 0
-41 -76 -6 -36 0
-41 -46 -6 -36 0
-42 -77 -47 -7 0
-42 -77 -47 -37 0
-42 -77 -7 -37 0
-42 -47 -7 -37 0
-43 -78 -48 -8 0
-43 -78 -48 -38 0
-43 -78 -8 -38 0
-43 -48 -8 -38 0
-44 -79 -49 -9 0
-44 -79 -49 -39 0
-44 -79 -9 -39 0
-44 -49 -9 -39 0
-45 -80 -50 -10 0
-45 -80 -50 -40 0
-45 -80 -10 -40 0
-45 -50 -10 -40 0
48 0
-46 0
-47 0
-49 0
-50 0
83 53 13 43 0
-83 -53 0
-83 -13 0
-83 -43 0
-53 -13 0
-53 -43 0
-13 -43 0
51 52 53 54 55 0
-51 -264 0
-51 -265 0
-51 -266 0
-52 264 0
-52 -265 0
-52 -266 0
-53 -264 0
-53 265 0
-53 -266 0
-54 264 0
-54 265 0
-54 -266 0
-55 -264 0
-55 -265 0
-55 266 0
-51 86 56 16 0
-51 86 56 46 0
-51 86 16 46 0
-51 56 16 46 0
-52 87 57 17 0
-52 87 57 47 0
-52 87 17 47 0
-52 57 17 47 0
-53 88 58 18 0
-53 88 58 48 0
-53 88 18 48 0
-53 58 18 48 0
-54 89 59 19 0
-54 89 59 49 0
-54 89 19 49 0
-54 59 19 49 0
-55 90 60 20 0
-55 90 60 50 0
-55 90 20 50 0
-55 60 20 50 0
-51 -86 -56 -16 0
-51 -86 -56 -46 0
-51 -86 -16 -46 0
-51 -56 -16 -46 0
-52 -87 -57 -17 0
-52 -87 -57 -47 0
-52 -87 -17 -47 0
-52 -57 -17 -47 0
-53 -88 -58 -18 0
-53 -88 -58 -48 0
-53 -88 -18 -48 0
-53 -58 -18 -48 0
-54 -89 -59 -19 0
-54 -89 -59 -49 0
-54 -89 -19 -49 0
-54 -59 -19 -49 0
-55 -90 -60 -20 0
-55 -90 -60 -50 0
-55 -90 -20 -50 0
-55 -60 -20 -50 0
56 57 58 59 60 0
-56 -267 0
-56 -268 0
-56 -269 0
-57 267 0
-57 -268 0
-57 -269 0
-58 -267 0
-58 268 0
-58 -269 0
-59 267 0
-59 268 0
-59 -269 0
-60 -267 0
-60 -268 0
-60 269 0
-56 91 61 21 0
-56 91 61 51 0
-56 91 21 51 0
-56 61 21 51 0
-57 92 62 22 0
-57 92 62 52 0
-57 92 22 52 0
-57 62 22 52 0
-58 93 63 23 0
-58 93 63 53 0
-58 93 23 53 0
-58 63 23 53 0
-59 94 64 24 0
-59 94 64 54 0
-59 94 24 54 0
-59 64 24 54 0
-60 95 65 25 0
-60 95 65 55 0
-60 95 25 55 0
-60 65 25 55 0
-56 -91 -61 -21 0
-56 -91 -61 -51 0
-56 -91 -21 -51 0
-56 -61 -21 -51 0
-57 -92 -62 -22 0
-57 -92 -62 -52 0
-57 -92 -22 -52 0
-57 -62 -22 -52 0
-58 -93 -63 -23 0
-58 -93 -63 -53 0
-58 -93 -23 -53 0
-58 -63 -23 -53 0
-59 -94 -64 -24 0
-59 -94 -64 -54 0
-59 -94 -24 -54 0
-59 -64 -24 -54 0
-60 -95 -65 -25 0
-60 -95 -65 -55 0
-60 -95 -25 -55 0
-60 -65 -25 -55 0
61 62 63 64 65 0
-61 -270 0
-61 -271 0
-61 -272 0
-62 270 0
-62 -271 0
-62 -272 0
-63 -270 0
-63 271 0
-63 -272 0
-64 270 0
-64 271 0
-64 -272 0
-65 -270 0
-65 -271 0
-65 272 0
-61 96 66 26 0
-61 96 66 56 0
-61 96 26 56 0
-61 66 26 56 0
-62 97 67 27 0
-62 97 67 57 0
-62 97 27 57 0
-62 67 27 57 0
-63 98 68 28 0
-63 98 68 58 0
-63 98 28 58 0
-63 68 28 58 0
-64 99 69 29 0
-64 99 69 59 0
-64 99 29 59 0
-64 69 29 59 0
-65 100 70 30 0
-65 100 70 60 0
-65 100 30 60 0
-65 70 30 60 0
-61 -96 -66 -26 0
-61 -96 -66 -56 0
-61 -96 -26 -56 0
-61 -66 -26 -56 0
-62 -97 -67 -27 0
-62 -97 -67 -57 0
-62 -97 -27 -57 0
-62 -67 -27 -57 0
-63 -98 -68 -28 0
-63 -98 -68 -58 0
-63 -98 -28 -58 0
-63 -68 -28 -58 0
-64 -99 -69 -29 0
-64 -99 -69 -59 0
-64 -99 -29 -59 0
-64 -69 -29 -59 0
-65 -100 -70 -30 0
-65 -100 -70 -60 0
-65 -100 -30 -60 0
-65 -70 -30 -60 0
66 67 68 69 70 0
-66 -273 0
-66 -274 0
-66 -275 0
-67 273 0
-67 -274 0
-67 -275 0
-68 -273 0
-68 274 0
-68 -275 0
-69 273 0
-69 274 0
-69 -275 0
-70 -273 0
-70 -274 0
-70 275 0
-66 101 61 0
-66 101 31 0
-66 61 31 0
-67 102 62 0
-67 102 32 0
-67 62 32 0
-68 103 63 0
-68 103 33 0
-68 63 33 0
-69 104 64 0
-69 104 34 0
-69 64 34 0
-70 105 65 0
-70 105 35 0
-70 65 35 0
-66 -101 -61 -31 0
-67 -102 -62 -32 0
-68 -103 -63 -33 0
-69 -104 -64 -34 0
-70 -105 -65 -35 0
71 72 73 74 75 0
-71 -276 0
-71 -277 0
-71 -278 0
-72 276 0
-72 -277 0
-72 -278 0
-73 -276 0
-73 277 0
-73 -278 0
-74 276 0
-74 277 0
-74 -278 0
-75 -276 0
-75 -277 0
-75 278 0
-71 106 76 0
-71 106 36 0
-71 76 36 0
-72 107 77 0
-72 107 37 0
-72 77 37 0
-73 108 78 0
-73 108 38 0
-73 78 38 0
-74 109 79 0
-74 109 39 0
-74 79 39 0
-75 110 80 0
-75 110 40 0
-75 80 40 0
-71 -106 -76 -36 0
-72 -107 -77 -37 0
-73 -108 -78 -38 0
-74 -109 -79 -39 0
-75 -110 -80 -40 0
77 0
-76 0
-78 0
-79 0
-80 0
112 82 42 72 0
-112 -82 0
-112 -42 0
-112 -72 0
-82 -42 0
-82 -72 0
-42 -72 0
81 82 83 84 85 0
-81 -279 0
-81 -280 0
-81 -281 0
-82 279 0
-82 -280 0
-82 -281 0
-83 -279 0
-83 280 0
-83 -281 0
-84 279 0
-84 280 0
-84 -281 0
-85 -279 0
-85 -280 0
-85 281 0
-81 116 86 46 0
-81 116 86 76 0
-81 116 46 76 0
-81 86 46 76 0
-82 117 87 47 0
-82 117 87 77 0
-82 117 47 77 0
-82 87 47 77 0
-83 118 88 48 0
-83 118 88 78 0
-83 118 48 78 0
-83 88 48 78 0
-84 119 89 49 0
-84 119 89 79 0
-84 119 49 79 0
-84 89 49 79 0
-85 120 90 50 0
-85 120 90 80 0
-85 120 50 80 0
-85 90 50 80 0
-81 -116 -86 -46 0
-81 -116 -86 -76 0
-81 -116 -46 -76 0
-81 -86 -46 -76 0
-82 -117 -87 -47 0
-82 -117 -87 -77 0
-82 -117 -47 -77 0
-82 -87 -47 -77 0
-83 -118 -88 -48 0
-83 -118 -88 -78 0
-83 -118 -48 -78 0
-83 -88 -48 -78 0
-84 -119 -89 -49 0
-84 -119 -89 -79 0
-84 -119 -49 -79 0
-84 -89 -49 -79 0
-85 -120 -90 -50 0
-85 -120 -90 -80 0
-85 -120 -50 -80 0
-85 -90 -50 -80 0
86 87 88 89 90 0
-86 -282 0
-86 -283 0
-86 -284 0
-87 282 0
-87 -283 0
-87 -284 0
-88 -282 0
-88 283 0
-88 -284 0
-89 282 0
-89 283 0
-89 -284 0
-90 -282 0
-90 -283 0
-90 284 0
-86 121 91 51 0
-86 121 91 81 0
-86 121 51 81 0
-86 91 51 81 0
-87 122 92 52 0
-87 122 92 82 0
-87 122 52 82 0
-87 92 52 82 0
-88 123 93 53 0
-88 123 93 83 0
-88 123 53 83 0
-88 93 53 83 0
-89 124 94 54 0
-89 124 94 84 0
-89 124 54 84 0
-89 94 54 84 0
-90 125 95 55 0
-90 125 95 85 0
-90 125 55 85 0
-90 95 55 85 0
-86 -121 -91 -51 0
-86 -121 -91 -81 0
-86 -121 -51 -81 0
-86 -91 -51 -81 0
-87 -122 -92 -52 0
-87 -122 -92 -82 0
-87 -122 -52 -82 0
-87 -92 -52 -82 0
-88 -123 -93 -53 0
-88 -123 -93 -83 0
-88 -123 -53 -83 0
-88 -93 -53 -83 0
-89 -124 -94 -54 0
-89 -124 -94 -84 0
-89 -124 -54 -84 0
-89 -94 -54 -84 0
-90 -125 -95 -55 0
-90 -125 -95 -85 0
-90 -125 -55 -85 0
-90 -95 -55 -85 0
95 0
-91 0
-92 0
-93 0
-94 0
130 100 60 90 0
-130 -100 0
-130 -60 0
-130 -90 0
-100 -60 0
-100 -90 0
-60 -90 0
96 97 98 99 100 0
-96 -285 0
-96 -286 0
-96 -287 0
-97 285 0
-97 -286 0
-97 -287 0
-98 -285 0
-98 286 0
-98 -287 0
-99 285 0
-99 286 0
-99 -287 0
-100 -285 0
-100 -286 0
-100 287 0
-96 131 101 61 0
-96 131 101 91 0
-96 131 61 91 0
-96 101 61 91 0
-97 132 102 62 0
-97 132 102 92 0
-97 132 62 92 0
-97 102 62 92 0
-98 133 103 63 0
-98 133 103 93 0
-98 133 63 93 0
-98 103 63 93 0
-99 134 104 64 0
-99 134 104 94 0
-99 134 64 94 0
-99 104 64 94 0
-100 135 105 65 0
-100 135 105 95 0
-100 135 65 95 0
-100 105 65 95 0
-96 -131 -101 -61 0
-96 -131 -101 -91 0
-96 -131 -61 -91 0
-96 -101 -61 -91 0
-97 -132 -102 -62 0
-97 -132 -102 -92 0
-97 -132 -62 -92 0
-97 -102 -62 -92 0
-98 -133 -103 -63 0
-98 -133 -103 -93 0
-98 -133 -63 -93 0
-98 -103 -63 -93 0
-99 -134 -104 -64 0
-99 -134 -104 -94 0
-99 -134 -64 -94 0
-99 -104 -64 -94 0
-100 -135 -105 -65 0
-100 -135 -105 -95 0
-100 -135 -65 -95 0
-100 -105 -65 -95 0
101 102 103 104 105 0
-101 -288 0
-101 -289 0
-101 -290 0
-102 288 0
-102 -289 0
-102 -290 0
-103 -288 0
-103 289 0
-103 -290 0
-104 288 0
-104 289 0
-104 -290 0
-105 -288 0
-105 -289 0
-105 290 0
-101 136 96 0
-101 136 66 0
-101 96 66 0
-102 137 97 0
-102 137 67 0
-102 97 67 0
-103 138 98 0
-103 138 68 0
-103 98 68 0
-104 139 99 0
-104 139 69 0
-104 99 69 0
-105 140 100 0
-105 140 70 0
-105 100 70 0
-101 -136 -96 -66 0
-102 -137 -97 -67 0
-103 -138 -98 -68 0
-104 -139 -99 -69 0
-105 -140 -100 -70 0
106 107 108 109 110 0
-106 -291 0
-106 -292 0
-106 -293 0
-107 291 0
-107 -292 0
-107 -293 0
-108 -291 0
-108 292 0
-108 -293 0
-109 291 0
-109 292 0
-109 -293 0
-110 -291 0
-110 -292 0
-110 293 0
-106 141 111 0
-106 141 71 0
-106 111 71 0
-107 142 112 0
-107 142 72 0
-107 112 72 0
-108 143 113 0
-108 143 73 0
-108 113 73 0
-109 144 114 0
-109 144 74 0
-109 114 74 0
-110 145 115 0
-110 145 75 0
-110 115 75 0
-106 -141 -111 -71 0
-107 -142 -112 -72 0
-108 -143 -113 -73 0
-109 -144 -114 -74 0
-110 -145 -115 -75 0
113 0
-111 0
-112 0
-114 0
-115 0
148 118 78 108 0
-148 -118 0
-148 -78 0
-148 -108 0
-118 -78 0
-118 -108 0
-78 -108 0
116 117 118 119 120 0
-116 -294 0
-116 -295 0
-116 -296 0
-117 294 0
-117 -295 0
-117 -296 0
-118 -294 0
-118 295 0
-118 -296 0
-119 294 0
-119 295 0
-119 -296 0
-120 -294 0
-120 -295 0
-120 296 0
-116 151 121 81 0
-116 151 121 111 0
-116 151 81 111 0
-116 121 81 111 0
-117 152 122 82 0
-117 152 122 112 0
-117 152 82 112 0
-117 122 82 112 0
-118 153 123 83 0
-118 153 123 113 0
-118 153 83 113 0
-118 123 83 113 0
-119 154 124 84 0
-119 154 124 114 0
-119 154 84 114 0
-119 124 84 114 0
-120 155 125 85 0
-120 155 125 115 0
-120 155 85 115 0
-120 125 85 115 0
-116 -151 -121 -81 0
-116 -151 -121 -111 0
-116 -151 -81 -111 0
-116 -121 -81 -111 0
-117 -152 -122 -82 0
-117 -152 -122 -112 0
-117 -152 -82 -112 0
-117 -122 -82 -112 0
-118 -153 -123 -83 0
-118 -153 -123 -113 0
-118 -153 -83 -113 0
-118 -123 -83 -113 0
-119 -154 -124 -84 0
-119 -154 -124 -114 0
-119 -154 -84 -114 0
-119 -124 -84 -114 0
-120 -155 -125 -85 0
-120 -155 -125 -115 0
-120 -155 -85 -115 0
-120 -125 -85 -115 0
121 122 123 124 125 0
-121 -297 0
-121 -298 0
-121 -299 0
-122 297 0
-122 -298 0
-122 -299 0
-123 -297 0
-123 298 0
-123 -299 0
-124 297 0
-124 298 0
-124 -299 0
-125 -297 0
-125 -298 0
-125 299 0
-121 156 126 86 0
-121 156 126 116 0
-121 156 86 116 0
-121 126 86 116 0
-122 157 127 87 0
-122 157 127 117 0
-122 157 87 117 0
-122 127 87 117 0
-123 158 128 88 0
-123 158 128 118 0
-123 158 88 118 0
-123 128 88 118 0
-124 159 129 89 0
-124 159 129 119 0
-124 159 89 119 0
-124 129 89 119 0
-125 160 130 90 0
-125 160 130 120 0
-125 160 90 120 0
-125 130 90 120 0
-121 -156 -126 -86 0
-121 -156 -126 -116 0
-121 -156 -86 -116 0
-121 -126 -86 -116 0
-122 -157 -127 -87 0
-122 -157 -127 -117 0
-122 -157 -87 -117 0
-122 -127 -87 -117 0
-123 -158 -128 -88 0
-123 -158 -128 -118 0
-123 -158 -88 -118 0
-123 -128 -88 -118 0
-124 -159 -129 -89 0
-124 -159 -129 -119 0
-124 -159 -89 -119 0
-124 -129 -89 -119 0
-125 -160 -130 -90 0
-125 -160 -130 -120 0
-125 -160 -90 -120 0
-125 -130 -90 -120 0
126 127 128 129 130 0
-126 -300 0
-126 -301 0
-126 -302 0
-127 300 0
-127 -301 0
-127 -302 0
-128 -300 0
-128 301 0
-128 -302 0
-129 300 0
-129 301 0
-129 -302 0
-130 -300 0
-130 -301 0
-130 302 0
-126 161 131 91 0
-126 161 131 121 0
-126 161 91 121 0
-126 131 91 121 0
-127 162 132 92 0
-127 162 132 122 0
-127 162 92 122 0
-127 132 92 122 0
-128 163 133 93 0
-128 163 133 123 0
-128 163 93 123 0
-128 133 93 123 0
-129 164 134 94 0
-129 164 134 124 0
-129 164 94 124 0
-129 134 94 124 0
-130 165 135 95 0
-130 165 135 125 0
-130 165 95 125 0
-130 135 95 125 0
-126 -161 -131 -91 0
-126 -161 -131 -121 0
-126 -161 -91 -121 0
-126 -131 -91 -121 0
-127 -162 -132 -92 0
-127 -162 -132 -122 0
-127 -162 -92 -122 0
-127 -132 -92 -122 0
-128 -163 -133 -93 0
-128 -163 -133 -123 0
-128 -163 -93 -123 0
-128 -133 -93 -123 0
-129 -164 -134 -94 0
-129 -164 -134 -124 0
-129 -164 -94 -124 0
-129 -134 -94 -124 0
-130 -165 -135 -95 0
-130 -165 -135 -125 0
-130 -165 -95 -125 0
-130 -135 -95 -125 0
131 132 133 134 135 0
-131 -303 0
-131 -304 0
-131 -305 0
-132 303 0
-132 -304 0
-132 -305 0
-133 -303 0
-133 304 0
-133 -305 0
-134 303 0
-134 304 0
-134 -305 0
-135 -303 0
-135 -304 0
-135 305 0
-131 166 136 96 0
-131 166 136 126 0
-131 166 96 126 0
-131 136 96 126 0
-132 167 137 97 0
-132 167 137 127 0
-132 167 97 127 0
-132 137 97 127 0
-133 168 138 98 0
-133 168 138 128 0
-133 168 98 128 0
-133 138 98 128 0
-134 169 139 99 0
-134 169 139 129 0
-134 169 99 129 0
-134 139 99 129 0
-135 170 140 100 0
-135 170 140 130 0
-135 170 100 130 0
-135 140 100 130 0
-131 -166 -136 -96 0
-131 -166 -136 -126 0
-131 -166 -96 -126 0
-131 -136 -96 -126 0
-132 -167 -137 -97 0
-132 -167 -137 -127 0
-132 -167 -97 -127 0
-132 -137 -97 -127 0
-133 -168 -138 -98 0
-133 -168 -138 -128 0
-133 -168 -98 -128 0
-133 -138 -98 -128 0
-134 -169 -139 -99 0
-134 -169 -139 -129 0
-134 -169 -99 -129 0
-134 -139 -99 -129 0
-135 -170 -140 -100 0
-135 -170 -140 -130 0
-135 -170 -100 -130 0
-135 -140 -100 -130 0
136 137 138 139 140 0
-136 -306 0
-136 -307 0
-136 -308 0
-137 306 0
-137 -307 0
-137 -308 0
-138 -306 0
-138 307 0
-138 -308 0
-139 306 0
-139 307 0
-139 -308 0
-140 -306 0
-140 -307 0
-140 308 0
-136 171 131 0
-136 171 101 0
-136 131 101 0
-137 172 132 0
-137 172 102 0
-137 132 102 0
-138 173 133 0
-138 173 103 0
-138 133 103 0
-139 174 134 0
-139 174 104 0
-139 134 104 0
-140 175 135 0
-140 175 105 0
-140 135 105 0
-136 -171 -131 -101 0
-137 -172 -132 -102 0
-138 -173 -133 -103 0
-139 -174 -134 -104 0
-140 -175 -135 -105 0
141 142 143 144 145 0
-141 -309 0
-141 -310 0
-141 -311 0
-142 309 0
-142 -310 0
-142 -311 0
-143 -309 0
-143 310 0
-143 -311 0
-144 309 0
-144 310 0
-144 -311 0
-145 -309 0
-145 -310 0
-145 311 0
-141 176 146 0
-141 176 106 0
-141 146 106 0
-142 177 147 0
-142 177 107 0
-142 147 107 0
-143 178 148 0
-143 178 108 0
-143 148 108 0
-144 179 149 0
-144 179 109 0
-144 149 109 0
-145 180 150 0
-145 180 110 0
-145 150 110 0
-141 -176 -146 -106 0
-142 -177 -147 -107 0
-143 -178 -148 -108 0
-144 -179 -149 -109 0
-145 -180 -150 -110 0
149 0
-146 0
-147 0
-148 0
-150 0
184 154 114 144 0
-184 -154 0
-184 -114 0
-184 -144 0
-154 -114 0
-154 -144 0
-114 -144 0
151 152 153 154 155 0
-151 -312 0
-151 -313 0
-151 -314 0
-152 312 0
-152 -313 0
-152 -314 0
-153 -312 0
-153 313 0
-153 -314 0
-154 312 0
-154 313 0
-154 -314 0
-155 -312 0
-155 -313 0
-155 314 0
-151 186 156 116 0
-151 186 156 146 0
-151 186 116 146 0
-151 156 116 146 0
-152 187 157 117 0
-152 187 157 147 0
-152 187 117 147 0
-152 157 117 147 0
-153 188 158 118 0
-153 188 158 148 0
-153 188 118 148 0
-153 158 118 148 0
-154 189 159 119 0
-154 189 159 149 0
-154 189 119 149 0
-154 159 119 149 0
-155 190 160 120 0
-155 190 160 150 0
-155 190 120 150 0
-155 160 120 150 0
-151 -186 -156 -116 0
-151 -186 -156 -146 0
-151 -186 -116 -146 0
-151 -156 -116 -146 0
-152 -187 -157 -117 0
-152 -187 -157 -147 0
-152 -187 -117 -147 0
-152 -157 -117 -147 0
-153 -188 -158 -118 0
-153 -188 -158 -148 0
-153 -188 -118 -148 0
-153 -158 -118 -148 0
-154 -189 -159 -119 0
-154 -189 -159 -149 0
-154 -189 -119 -149 0
-154 -159 -119 -149 0
-155 -190 -160 -120 0
-155 -190 -160 -150 0
-155 -190 -120 -150 0
-155 -160 -120 -150 0
156 157 158 159 160 0
-156 -315 0
-156 -316 0
-156 -317 0
-157 315 0
-157 -316 0
-157 -317 0
-158 -315 0
-158 316 0
-158 -317 0
-159 315 0
-159 316 0
-159 -317 0
-160 -315 0
-160 -316 0
-160 317 0
-156 191 161 121 0
-156 191 161 151 0
-156 191 121 151 0
-156 161 121 151 0
-157 192 162 122 0
-157 192 162 152 0
-157 192 122 152 0
-157 162 122 152 0
-158 193 163 123 0
-158 193 163 153 0
-158 193 123 153 0
-158 163 123 153 0
-159 194 164 124 0
-159 194 164 154 0
-159 194 124 154 0
-159 164 124 154 0
-160 195 165 125 0
-160 195 165 155 0
-160 195 125 155 0
-160 165 125 155 0
-156 -191 -161 -121 0
-156 -191 -161 -151 0
-156 -191 -121 -151 0
-156 -161 -121 -151 0
-157 -192 -162 -122 0
-157 -192 -162 -152 0
-157 -192 -122 -152 0
-157 -162 -122 -152 0
-158 -193 -163 -123 0
-158 -193 -163 -153 0
-158 -193 -123 -153 0
-158 -163 -123 -153 0
-159 -194 -164 -124 0
-159 -194 -164 -154 0
-159 -194 -124 -154 0
-159 -164 -124 -154 0
-160 -195 -165 -125 0
-160 -195 -165 -155 0
-160 -195 -125 -155 0
-160 -165 -125 -155 0
161 162 163 164 165 0
-161 -318 0
-161 -319 0
-161 -320 0
-162 318 0
-162 -319 0
-162 -320 0
-163 -318 0
-163 319 0
-163 -320 0
-164 318 0
-164 319 0
-164 -320 0
-165 -318 0
-165 -319 0
-165 320 0
-161 196 166 126 0
-161 196 166 156 0
-161 196 126 156 0
-161 166 126 156 0
-162 197 167 127 0
-162 197 167 157 0
-162 197 127 157 0
-162 167 127 157 0
-163 198 168 128 0
-163 198 168 158 0
-163 198 128 158 0
-163 168 128 158 0
-164 199 169 129 0
-164 199 169 159 0
-164 199 129 159 0
-164 169 129 159 0
-165 200 170 130 0
-165 200 170 160 0
-165 200 130 160 0
-165 170 130 160 0
-161 -196 -166 -126 0
-161 -196 -166 -156 0
-161 -196 -126 -156 0
-161 -166 -126 -156 0
-162 -197 -167 -127 0
-162 -197 -167 -157 0
-162 -197 -127 -157 0
-162 -167 -127 -157 0
-163 -198 -168 -128 0
-163 -198 -168 -158 0
-163 -198 -128 -158 0
-163 -168 -128 -158 0
-164 -199 -169 -129 0
-164 -199 -169 -159 0
-164 -199 -129 -159 0
-164 -169 -129 -159 0
-165 -200 -170 -130 0
-165 -200 -170 -160 0
-165 -200 -130 -160 0
-165 -170 -130 -160 0
166 167 168 169 170 0
-166 -321 0
-166 -322 0
-166 -323 0
-167 321 0
-167 -322 0
-167 -323 0
-168 -321 0
-168 322 0
-168 -323 0
-169 321 0
-169 322 0
-169 -323 0
-170 -321 0
-170 -322 0
-170 323 0
-166 201 171 131 0
-166 201 171 161 0
-166 201 131 161 0
-166 171 131 161 0
-167 202 172 132 0
-167 202 172 162 0
-167 202 132 162 0
-167 172 132 162 0
-168 203 173 133 0
-168 203 173 163 0
-168 203 133 163 0
-168 173 133 163 0
-169 204 174 134 0
-169 204 174 164 0
-169 204 134 164 0
-169 174 134 164 0
-170 205 175 135 0
-170 205 175 165 0
-170 205 135 165 0
-170 175 135 165 0
-166 -201 -171 -131 0
-166 -201 -171 -161 0
-166 -201 -131 -161 0
-166 -171 -131 -161 0
-167 -202 -172 -132 0
-167 -202 -172 -162 0
-167 -202 -132 -162 0
-167 -172 -132 -162 0
-168 -203 -173 -133 0
-168 -203 -173 -163 0
-168 -203 -133 -163 0
-168 -173 -133 -163 0
-169 -204 -174 -134 0
-169 -204 -174 -164 0
-169 -204 -134 -164 0
-169 -174 -134 -164 0
-170 -205 -175 -135 0
-170 -205 -175 -165 0
-170 -205 -135 -165 0
-170 -175 -135 -165 0
171 172 173 174 175 0
-171 -324 0
-171 -325 0
-171 -326 0
-172 324 0
-172 -325 0
-172 -326 0
-173 -324 0
-173 325 0
-173 -326 0
-174 324 0
-174 325 0
-174 -326 0
-175 -324 0
-175 -325 0
-175 326 0
-171 206 166 0
-171 206 136 0
-171 166 136 0
-172 207 167 0
-172 207 137 0
-172 167 137 0
-173 208 168 0
-173 208 138 0
-173 168 138 0
-174 209 169 0
-174 209 139 0
-174 169 139 0
-175 210 170 0
-175 210 140 0
-175 170 140 0
-171 -206 -166 -136 0
-172 -207 -167 -137 0
-173 -208 -168 -138 0
-174 -209 -169 -139 0
-175 -210 -170 -140 0
176 177 178 179 180 0
-176 -327 0
-176 -328 0
-176 -329 0
-177 327 0
-177 -328 0
-177 -329 0
-178 -327 0
-178 328 0
-178 -329 0
-179 327 0
-179 328 0
-179 -329 0
-180 -327 0
-180 -328 0
-180 329 0
-176 211 181 0
-176 211 141 0
-176 181 141 0
-177 212 182 0
-177 212 142 0
-177 182 142 0
-178 213 183 0
-178 213 143 0
-178 183 143 0
-179 214 184 0
-179 214 144 0
-179 184 144 0
-180 215 185 0
-180 215 145 0
-180 185 145 0
-176 -211 -181 -141 0
-177 -212 -182 -142 0
-178 -213 -183 -143 0
-179 -214 -184 -144 0
-180 -215 -185 -145 0
185 0
-181 0
-182 0
-183 0
-184 0
220 190 150 180 0
-220 -190 0
-220 -150 0
-220 -180 0
-190 -150 0
-190 -180 0
-150 -180 0
186 187 188 189 190 0
-186 -330 0
-186 -331 0
-186 -332 0
-187 330 0
-187 -331 0
-187 -332 0
-188 -330 0
-188 331 0
-188 -332 0
-189 330 0
-189 331 0
-189 -332 0
-190 -330 0
-190 -331 0
-190 332 0
-186 221 191 151 0
-186 221 191 181 0
-186 221 151 181 0
-186 191 151 181 0
-187 222 192 152 0
-187 222 192 182 0
-187 222 152 182 0
-187 192 152 182 0
-188 223 193 153 0
-188 223 193 183 0
-188 223 153 183 0
-188 193 153 183 0
-189 224 194 154 0
-189 224 194 184 0
-189 224 154 184 0
-189 194 154 184 0
-190 225 195 155 0
-190 225 195 185 0
-190 225 155 185 0
-190 195 155 185 0
-186 -221 -191 -151 0
-186 -221 -191 -181 0
-186 -221 -151 -181 0
-186 -191 -151 -181 0
-187 -222 -192 -152 0
-187 -222 -192 -182 0
-187 -222 -152 -182 0
-187 -192 -152 -182 0
-188 -223 -193 -153 0
-188 -223 -193 -183 0
-188 -223 -153 -183 0
-188 -193 -153 -183 0
-189 -224 -194 -154 0
-189 -224 -194 -184 0
-189 -224 -154 -184 0
-189 -194 -154 -184 0
-190 -225 -195 -155 0
-190 -225 -195 -185 0
-190 -225 -155 -185 0
-190 -195 -155 -185 0
191 192 193 194 195 0
-191 -333 0
-191 -334 0
-191 -335 0
-192 333 0
-192 -334 0
-192 -335 0
-193 -333 0
-193 334 0
-193 -335 0
-194 333 0
-194 334 0
-194 -335 0
-195 -333 0
-195 -334 0
-195 335 0
-191 226 196 156 0
-191 226 196 186 0
-191 226 156 186 0
-191 196 156 186 0
-192 227 197 157 0
-192 227 197 187 0
-192 227 157 187 0
-192 197 157 187 0
-193 228 198 158 0
-193 228 198 188 0
-193 228 158 188 0
-193 198 158 188 0
-194 229 199 159 0
-194 229 199 189 0
-194 229 159 189 0
-194 199 159 189 0
-195 230 200 160 0
-195 230 200 190 0
-195 230 160 190 0
-195 200 160 190 0
-191 -226 -196 -156 0
-191 -226 -196 -186 0
-191 -226 -156 -186 0
-191 -196 -156 -186 0
-192 -227 -197 -157 0
-192 -227 -197 -187 0
-192 -227 -157 -187 0
-192 -197 -157 -187 0
-193 -228 -198 -158 0
-193 -228 -198 -188 0
-193 -228 -158 -188 0
-193 -198 -158 -188 0
-194 -229 -199 -159 0
-194 -229 -199 -189 0
-194 -229 -159 -189 0
-194 -199 -159 -189 0
-195 -230 -200 -160 0
-195 -230 -200 -190 0
-195 -230 -160 -190 0
-195 -200 -160 -190 0
196 197 198 199 200 0
-196 -336 0
-196 -337 0
-196 -338 0
-197 336 0
-197 -337 0
-197 -338 0
-198 -336 0
-198 337 0
-198 -338 0
-199 336 0
-199 337 0
-199 -338 0
-200 -336 0
-200 -337 0
-200 338 0
-196 231 201 161 0
-196 231 201 191 0
-196 231 161 191 0
-196 201 161 191 0
-197 232 202 162 0
-197 232 202 192 0
-197 232 162 192 0
-197 202 162 192 0
-198 233 203 163 0
-198 233 203 193 0
-198 233 163 193 0
-198 203 163 193 0
-199 234 204 164 0
-199 234 204 194 0
-199 234 164 194 0
-199 204 164 194 0
-200 235 205 165 0
-200 235 205 195 0
-200 235 165 195 0
-200 205 165 195 0
-196 -231 -201 -161 0
-196 -231 -201 -191 0
-196 -231 -161 -191 0
-196 -201 -161 -191 0
-197 -232 -202 -162 0
-197 -232 -202 -192 0
-197 -232 -162 -192 0
-197 -202 -162 -192 0
-198 -233 -203 -163 0
-198 -233 -203 -193 0
-198 -233 -163 -193 0
-198 -203 -163 -193 0
-199 -234 -204 -164 0
-199 -234 -204 -194 0
-199 -234 -164 -194 0
-199 -204 -164 -194 0
-200 -235 -205 -165 0
-200 -235 -205 -195 0
-200 -235 -165 -195 0
-200 -205 -165 -195 0
204 0
-201 0
-202 0
-203 0
-205 0
239 209 169 199 0
-239 -209 0
-239 -169 0
-239 -199 0
-209 -169 0
-209 -199 0
-169 -199 0
206 207 208 209 210 0
-206 -339 0
-206 -340 0
-206 -341 0
-207 339 0
-207 -340 0
-207 -341 0
-208 -339 0
-208 340 0
-208 -341 0
-209 339 0
-209 340 0
-209 -341 0
-210 -339 0
-210 -340 0
-210 341 0
-206 241 201 0
-206 241 171 0
-206 201 171 0
-207 242 202 0
-207 242 172 0
-207 202 172 0
-208 243 203 0
-208 243 173 0
-208 203 173 0
-209 244 204 0
-209 244 174 0
-209 204 174 0
-210 245 205 0
-210 245 175 0
-210 205 175 0
-206 -241 -201 -171 0
-207 -242 -202 -172 0
-208 -243 -203 -173 0
-209 -244 -204 -174 0
-210 -245 -205 -175 0
211 212 213 214 215 0
-211 -342 0
-211 -343 0
-211 -344 0
-212 342 0
-212 -343 0
-212 -344 0
-213 -342 0
-213 343 0
-213 -344 0
-214 342 0
-214 343 0
-214 -344 0
-215 -342 0
-215 -343 0
-215 344 0
-211 176 0
-211 216 0
-212 177 0
-212 217 0
-213 178 0
-213 218 0
-214 179 0
-214 219 0
-215 180 0
-215 220 0
216 217 218 219 220 0
-216 -345 0
-216 -346 0
-216 -347 0
-217 345 0
-217 -346 0
-217 -347 0
-218 -345 0
-218 346 0
-218 -347 0
-219 345 0
-219 346 0
-219 -347 0
-220 -345 0
-220 -346 0
-220 347 0
-216 181 221 0
-216 181 211 0
-216 221 211 0
-217 182 222 0
-217 182 212 0
-217 222 212 0
-218 183 223 0
-218 183 213 0
-218 223 213 0
-219 184 224 0
-219 184 214 0
-219 224 214 0
-220 185 225 0
-220 185 215 0
-220 225 215 0
-216 -181 -221 -211 0
-217 -182 -222 -212 0
-218 -183 -223 -213 0
-219 -184 -224 -214 0
-220 -185 -225 -215 0
221 222 223 224 225 0
-221 -348 0
-221 -349 0
-221 -350 0
-222 348 0
-222 -349 0
-222 -350 0
-223 -348 0
-223 349 0
-223 -350 0
-224 348 0
-224 349 0
-224 -350 0
-225 -348 0
-225 -349 0
-225 350 0
-221 186 226 0
-221 186 216 0
-221 226 216 0
-222 187 227 0
-222 187 217 0
-222 227 217 0
-223 188 228 0
-223 188 218 0
-223 228 218 0
-224 189 229 0
-224 189 219 0
-224 229 219 0
-225 190 230 0
-225 190 220 0
-225 230 220 0
-221 -186 -226 -216 0
-222 -187 -227 -217 0
-223 -188 -228 -218 0
-224 -189 -229 -219 0
-225 -190 -230 -220 0
226 227 228 229 230 0
-226 -351 0
-226 -352 0
-226 -353 0
-227 351 0
-227 -352 0
-227 -353 0
-228 -351 0
-228 352 0
-228 -353 0
-229 351 0
-229 352 0
-229 -353 0
-230 -351 0
-230 -352 0
-230 353 0
-226 191 231 0
-226 191 221 0
-226 231 221 0
-227 192 232 0
-227 192 222 0
-227 232 222 0
-228 193 233 0
-228 193 223 0
-228 233 223 0
-229 194 234 0
-229 194 224 0
-229 234 224 0
-230 195 235 0
-230 195 225 0
-230 235 225 0
-226 -191 -231 -221 0
-227 -192 -232 -222 0
-228 -193 -233 -223 0
-229 -194 -234 -224 0
-230 -195 -235 -225 0
231 232 233 234 235 0
-231 -354 0
-231 -355 0
-231 -356 0
-232 354 0
-232 -355 0
-232 -356 0
-233 -354 0
-233 355 0
-233 -356 0
-234 354 0
-234 355 0
-234 -356 0
-235 -354 0
-235 -355 0
-235 356 0
-231 196 236 0
-231 196 226 0
-231 236 226 0
-232 197 237 0
-232 197 227 0
-232 237 227 0
-233 198 238 0
-233 198 228 0
-233 238 228 0
-234 199 239 0
-234 199 229 0
-234 239 229 0
-235 200 240 0
-235 200 230 0
-235 240 230 0
-231 -196 -236 -226 0
-232 -197 -237 -227 0
-233 -198 -238 -228 0
-234 -199 -239 -229 0
-235 -200 -240 -230 0
236 237 238 239 240 0
-236 -357 0
-236 -358 0
-236 -359 0
-237 357 0
-237 -358 0
-237 -359 0
-238 -357 0
-238 358 0
-238 -359 0
-239 357 0
-239 358 0
-239 -359 0
-240 -357 0
-240 -358 0
-240 359 0
-236 201 241 0
-236 201 231 0
-236 241 231 0
-237 202 242 0
-237 202 232 0
-237 242 232 0
-238 203 243 0
-238 203 233 0
-238 243 233 0
-239 204 244 0
-239 204 234 0
-239 244 234 0
-240 205 245 0
-240 205 235 0
-240 245 235 0
-236 -201 -241 -231 0
-237 -202 -242 -232 0
-238 -203 -243 -233 0
-239 -204 -244 -234 0
-240 -205 -245 -235 0
241 242 243 244 245 0
-241 -360 0
-241 -361 0
-241 -362 0
-242 360 0
-242 -361 0
-242 -362 0
-243 -360 0
-243 361 0
-243 -362 0
-244 360 0
-244 361 0
-244 -362 0
-245 -360 0
-245 -361 0
-245 362 0
-241 206 0
-241 236 0
-242 207 0
-242 237 0
-243 208 0
-243 238 0
-244 209 0
-244 239 0
-245 210 0
-245 240 0
6 41 216 0
81 116 151 186 221 0
37 42 52 57 62 67 0
73 83 88 98 103 0
84 119 154 189 224 0
54 89 124 159 194 229 0
24 59 129 164 199 234 0
110 120 125 130 135 140 0
145 155 160 165 170 175 0
85 120 155 190 225 0
55 90 125 160 195 230 0